C38 H26 Cl4 Co N6, C4 H8 O2, 2(Cl O4)
1.0
       10.1716995239         0.0000000000         0.0000000000
       -0.3417695737        10.3242444366         0.0000000000
       -3.2504912078        -2.2739828712        21.4285032399
    C   Cl   Co    H    N    O
   84    8    2   60   12    4
Cartesian
     3.921221945         1.668576014         5.057341052
     2.658215906         6.381686508        16.371161869
     5.181720073         2.223643038         5.265198178
     1.397718945         5.826617879        16.163305381
     6.162833118         2.049101086         4.302628909
     0.416606096         6.001161384        17.125873053
     5.890051677         1.318395043         3.161989947
     0.689387045         6.731867137        18.266513293
     4.639632353         0.761148965         2.955205062
     1.939807182         7.289112966        18.473296900
     3.650664987         0.951046049         3.899558997
     2.928774097         7.099215858        17.528943924
     3.066270026         1.466192027         7.207692150
     3.513169150         6.584068788        14.220812368
     2.008954927         1.741102987         8.187617491
     4.570484108         6.309158886        13.240885749
     1.995326900         1.262007922         9.491756369
     4.584111468         6.788252806        11.936747509
     0.930331029         1.625779042        10.305609436
     5.649107734         6.424481908        11.122893804
    -0.038240121         2.474189098         9.831183731
     6.617678918         5.576072399        11.597320147
     0.059377935         2.929052146         8.521901414
     6.520060030         5.121210035        12.906601826
    -0.859226005         3.879456840         7.893832241
     7.438665071         4.170804110        13.534670999
     8.555198411         5.078436687         6.042194937
    -1.975759988         2.971824946        15.386307665
     7.269887175         5.302055566         6.522836322
    -0.690448044         2.748205009        14.905667557
     6.497029084         6.302568857         5.967409440
     0.082409952         1.747693016        15.461093800
     7.001333421         7.065721791         4.934341086
    -0.421894988         0.984539876        16.494161196
     8.243203396         6.812798763         4.399057848
    -1.663763981         1.237463110        17.029445392
     9.013712761         5.800100834         4.952556101
    -2.434273967         2.250159876        16.475946501
     2.564462885         5.762005620         6.031480823
     4.014975888         2.288255022        15.397022417
     2.802903040         5.424971805         7.358976559
     3.776536133         2.625288905        14.069526043
     3.261177877         6.380099745         8.252759200
     3.318260866         1.670161821        13.175744040
     3.486718917         7.660385908         7.804474732
     3.092720251         0.389874956        13.624027870
     3.238414180         8.025076786         6.488764712
     3.341024988         0.025184078        14.939737889
     2.767546090         7.067567186         5.597981665
     3.811893032         0.982695063        15.830520936
     2.318178054         4.798346259         3.904701797
     4.261261226         3.251915888        17.523801762
     1.712452972         3.778075116         3.050776017
     4.866985753         4.272185493        18.377727543
     1.897446964         3.676032955         1.677422955
     4.681992065         4.374229019        19.751079327
     1.293241956         2.629852887         1.009282983
     5.286196210         5.420409432        20.419221853
     0.538552977         1.692000029         1.713636972
     6.040886008         6.358261913        19.714867066
     0.411588994         1.853922881         3.086990193
     6.167849024         6.196339180        18.341512727
    -0.224241037         0.887567941         4.001558930
     6.803679715         7.162693711        17.426944948
    -0.583310998         0.164843010         6.200550776
     7.162750090         7.885419008        15.227951826
    -0.182590994         9.321660847         6.266336851
     6.762030379        -1.271398954        15.162165111
    -0.424787008         8.405180783         7.275191002
     7.004226524        -0.354918996        14.153311599
    -1.423261086         8.658232974         8.188688455
     8.002699648        -0.607970956        13.239814146
     8.326189082        -0.525801009         8.116688615
    -1.746749906         8.576063190        13.311814625
     8.583175675         0.413568960         7.125620008
    -2.003736888         7.636691981        14.302882593
     5.310297219         6.422085092         1.299852946
     1.269142165         1.628176183        20.128650134
     5.027551362         7.746756103         0.695997976
     1.551887068         0.303504984        20.732505424
     7.004580837         4.821014789         1.774494025
    -0.425143004         3.229246777        19.654009215
     8.439065762         4.634244938         1.491424006
    -1.859627060         3.416017020        19.937078436
     7.121453711         1.088229963         1.959851002
    -0.542015901         6.962030799        19.468652558
     6.063940932         8.377671418         4.282057709
     0.515497925        -0.327410142        17.146446808
     4.115007825         8.860511084         8.894757296
     2.464431031        -0.810249951        12.533745306
    -1.674275957         7.515144755         9.473755611
     8.253714927         0.535116965        11.954747629
     0.953000056         2.974232915         5.743696038
     5.626439172         5.076027727        15.684807202
     5.365939077         2.716070093         6.056530660
     1.213499882         5.334191096        15.371973219
     7.023156233         2.432346973         4.426871629
    -0.443717001         5.617915140        17.001632250
     3.866260983         1.017970005         7.456604824
     2.713178185         7.032290859        13.971897777
     2.783097950         0.590076948         3.757145008
     3.796340751         7.460184352        17.671358551
     4.464718685         0.252469987         2.172056965
     2.114719949         7.797791110        19.256447074
     6.924663041         4.769628912         7.229890552
    -0.345224006         3.280632962        14.198612688
    -0.760761995         2.744306220        10.385989237
     7.340200121         5.305954970        11.042514642
     0.872793123         1.287171117        11.191464898
     5.706645994         6.763091286        10.237037704
     2.692271813         0.703533018         9.816076556
     3.887167136         7.346728480        11.612427322
     3.388248955         8.918359682         6.200808778
     3.191189915        -0.868098972        15.227693824
     2.585880109         7.304638979         4.696142205
     3.993558618         0.745623048        16.732361035
     2.868424826         5.482158116         3.540095917
     3.711014230         2.568103142        17.888407323
     0.123920009         0.963123976         1.266832024
     6.455519330         7.087136924        20.161673131
     1.391907014         2.548300030         0.067927999
     5.187532145         5.501961142        21.360574597
     2.427717967         4.310925899         1.209532000
     4.151721056         3.739335965        20.218971320
     2.651473099         4.535251000         7.655204527
     3.927966230         3.515011181        13.773298713
     3.417289125         6.154171841         9.162142030
     3.162148904         1.896089964        12.266361849
     8.566862813         7.321446134         3.664702969
    -1.987423933         0.728815946        17.763801229
     5.620587160         6.464665696         6.295501311
     0.958851007         1.585594947        15.133001929
     0.092132947         7.610009844         7.336562303
     6.487306488         0.440252097        14.091940298
     0.491964056         9.149982313         5.619925259
     6.087474512        -1.099720055        15.808577981
     8.077142571         1.216059965         7.081477374
    -1.497704158         6.834201686        14.347026504
     7.626051085        -0.381052970         8.741650267
    -1.046612062         8.431315227        12.686852972
     5.647107306         8.411722474         1.062167994
     0.932330835        -0.361461063        20.366335246
     4.106200287         8.010016379         0.903104006
     2.473237945         0.040244938        20.525398675
     6.479938984         4.093378060         1.355031078
     0.099499942         3.956883949        20.073470884
     8.571093493         4.535672327         0.525513003
    -1.991654874         3.514589888        20.902989918
     6.846697580         4.795292942         2.751505986
    -0.267259021         3.254968181        18.676998532
     8.760202407         3.829332087         1.949008047
    -2.180763891         4.220929323        19.479493756
     8.939003043         5.413718168         1.811866018
    -2.359564105         2.636542954        19.616638499
     2.079672908         4.737233087         5.171340959
     4.499764681         3.313028204        16.257161962
     0.970080970         2.889975173         3.720201847
     5.609357782         5.160286084        17.708301392
    -0.211331961         1.172212023         5.253625760
     6.790769757         6.878049884        16.174877160
     2.865563964         1.855190062         5.999551781
     3.713875158         6.195072187        15.428950821
     1.046844940         2.538321879         7.719832786
     5.532594481         5.511938899        13.708669176
    -0.728581030         4.124180791         6.639407309
     7.308020431         3.926079919        14.789095292
     4.499804856         5.646172313         1.772137041
     2.079633363         2.404088995        19.656365720
     6.585949989         6.116331770         1.233210003
    -0.006511010         1.933928805        20.195293876
