C38 H26 Br4 Co N6, 2(Cl O4)
1.0
        8.1977996826         0.0000000000         0.0000000000
        0.0000000000        41.0395011902         0.0000000000
       -2.4667292574         0.0000000000        36.4268751018
    C    H    N   Co   Br
  456  312   72   12   48
Cartesian
     1.577858419        22.887320419        22.048095717
     4.153212007        18.152180771        14.378779385
    -1.179052463         2.367569824        32.592216936
     6.910122889        38.671931366         3.834658166
     0.810891278        23.060096525        20.905018288
     4.920179147        17.979404665        15.521856814
    -0.412085323         2.540345930        33.735294365
     6.143155748        38.499155260         2.691580737
     0.185517309        21.979115744        20.322189276
     5.545552994        19.060385446        16.104685826
     0.213288524         1.459365149        34.318123377
     5.517781901        39.580136041         2.108751725
     0.226437293        20.734798531        20.904290932
     5.504633254        20.304702659        15.522584170
     0.172368784         0.215047936        33.736021721
     5.558701641        40.824453254         2.690853381
     0.964668850        20.578436057        22.060115541
     4.766401576        20.461065133        14.366759561
    -0.565862894         0.058685462        32.580197112
     6.296933320        40.980815728         3.846677990
     1.677032313        21.643000760        22.629467846
     4.054038113        19.396500431        13.797407256
    -1.278226357         1.123250164        32.010844807
     7.009296783        39.916251026         4.416030295
     2.404466076        24.282662618        23.751050287
     3.326604349        16.756838572        12.675824815
    -2.005660121         3.762912023        30.889262366
     7.736730546        37.276589167         5.537612736
     3.179399194        25.480605817        24.098563456
     2.551671231        15.558895373        12.328311646
     5.417206444         4.960855222        30.541749197
     0.313863982        36.078645969         5.885125905
     3.445631657        26.026431249        25.348368930
     2.285438768        15.013069941        11.078506172
     5.150973981         5.506680654        29.291943722
     0.580096444        35.532820536         7.134931379
     4.168089632        27.197699238        25.417580622
     1.562980793        13.841801952        11.009294480
     4.428516006         6.677948643        29.222732031
     1.302554419        34.361552548         7.204143071
     4.635661218        27.816573895        24.275234891
     1.095409207        13.222927295        12.151640211
     3.960944420         7.296823300        30.365077762
     1.770126006        33.742677890         6.061797340
     4.384172032        27.212882459        23.049833827
     1.346898393        13.826618731        13.377041275
     4.212433606         6.693131864        31.590478826
     1.518636819        34.346369326         4.836396276
     4.872854115        27.595782411        21.741017010
     0.858216310        13.443718779        14.685858092
     3.723751523         7.076031816        32.899295643
     2.007318903        33.963469374         3.527579459
     5.053923647        27.070886194        19.454501730
     0.677146778        13.968614996        16.972373371
     3.542681990         6.551135599        35.185810922
     2.188388435        34.488365591         1.241064179
     4.788086471        28.329156218        18.925219123
     0.942983954        12.710344972        17.501655979
     3.808519167         7.809405623        35.715093530
     1.922551258        33.230095567         0.711781572
     5.199147811        28.618897188        17.636799747
     0.531922541        12.420604002        18.790076440
     5.864187084         8.099146593         0.576637804
    -0.133116585        32.940354597        35.850236213
     5.864372072        27.701663793        16.880577829
    -0.133301574        13.337837398        19.546296187
     5.198962823         7.181913198         1.332859722
     0.532107529        33.857587993        35.094016466
     6.107458715        26.438467233        17.418967581
    -0.376388289        14.601033957        19.007907521
     4.955876181         5.918716638         0.794469970
     0.775194245        35.120784552        35.632405132
     5.715227884        26.110972463        18.707750634
     0.015842542        14.928528728        17.719124467
     2.881377754         5.591221868        35.932562018
     2.849692671        35.448279323         0.494313084
     5.784812640        23.387180343        22.861507332
    -0.053742215        17.652320847        13.565367770
     2.811792998         2.867429748        31.778805321
     2.919277427        38.172071442         4.648069781
     5.891444233        22.121933914        23.453807165
    -0.160373808        18.917567276        12.973067937
     2.705161404         1.602183319        31.186505488
     3.025909021        39.437317872         5.240369614
    -1.522345127        21.988144465        24.599433596
     7.253415552        19.051356725        11.827441506
     1.921151082         1.468393870        30.040879057
     3.809919343        39.571107320         6.385996045
    -0.899954976        23.073227431        25.177891960
     6.631025401        17.966273759        11.248983142
     1.298760931         2.553476836        29.462420693
     4.432309494        38.486024354         6.964454409
    -1.068938690        24.315903281        24.586319482
     6.800009116        16.723597909        11.840555620
     1.467744646         3.796152686        30.053993171
     4.263325780        37.243348504         6.372881931
     6.403696272        24.487859928        23.431222229
    -0.672625847        16.551641262        12.995652873
     2.192909366         3.968109333        31.209090424
     3.538161060        37.071391857         5.217784678
     4.891358399        22.686636246        20.801931363
     0.839712026        18.352864944        15.624943739
     3.705247238         2.166885651        33.838381290
     2.025823187        38.872615539         2.588493812
     4.050284888        22.968987412        19.651569521
     1.680785538        18.070513778        16.775305581
     4.546320750         2.449236817        34.988743132
     1.184749675        38.590264373         1.438131970
     3.937463989        22.137528087        18.533265609
     1.793606436        18.901973103        17.893609493
     4.659141648         1.617777492        36.107047044
     1.071928777        39.421723698         0.319828058
     3.153197896        22.543818077        17.476157277
     2.577872529        18.495683113        18.950717825
     7.910136999         2.024067482         0.737280274
    -2.179066574        39.015433708        35.689594828
     2.488810396        23.739708960        17.542090440
     3.242259785        17.299792230        18.884784662
     0.376724816         3.219958365         0.671347111
     5.354345853        37.819542825        35.755527991
     2.604798410        24.519050722        18.686257817
     3.126271771        16.520450468        17.740617285
    -2.205992454         3.999300127        35.954054836
     7.937063124        37.040201063         0.472820266
     1.844410123        25.726842100        18.935054709
     3.886660302        15.312659090        17.491820393
    -1.445604168         5.207091505        35.705257944
     7.176674593        35.832409685         0.721617158
     1.187225994        27.445576884        20.347323214
     4.543844432        13.593924306        16.079551888
    -0.788420038         6.925826289        34.292989439
     6.519490464        34.113674901         2.133885663
     0.731147556        28.296326508        19.346677223
     4.999922747        12.743174682        17.080197879
    -0.332341723         7.776575913        35.293635429
     6.063412149        33.262925278         1.133239672
     0.027290579        29.447073787        19.680711514
     5.703779968        11.592427403        16.746163587
     0.371515498         8.927323192        34.959601138
     5.359554927        32.112177998         1.467273964
    -0.221258745        29.747893347        21.014664441
     5.952329048        11.291607843        15.412210661
     0.620064578         9.228142752        33.625648212
     5.111005847        31.811358438         2.801226890
     0.234819693        28.897554676        22.015310432
     5.496250733        12.141946515        14.411564670
     0.163986263         8.377804081        32.625002221
     5.567084163        32.661697110         3.801872881
     0.938676670        27.746396444        21.681276141
     4.792394000        13.293104746        14.745598961
    -0.539870715         7.226645849        32.959036512
     6.270940896        33.812855341         3.467838590
     3.078983947        22.799085527        32.021772511
     2.652086478        18.240415663         4.405102590
     5.517621691         2.279334932        22.618540141
     0.213448734        38.760166258        13.808334961
     3.161105403        21.666804195        31.232767479
     2.569965022        19.372696995         5.194107623
     5.435500235         1.147053600        23.407545174
     0.295570190        39.892447590        13.019329928
     3.862598957        20.579668914        31.720523506
     1.868471469        20.459832276         4.706351596
     4.734006681         0.059918319        22.919789147
     0.997063744        40.979582871        13.507085955
     4.440619120        20.578847009        32.966320925
     1.290451305        20.460654181         3.460554177
     4.155986518         0.059096414        21.673991728
     1.575083908        40.980404776        14.752883374
     4.339181239        21.723439788        33.725821372
     1.391889186        19.316061402         2.701053730
     4.257424399         1.203689193        20.914491281
     1.473646026        39.835811997        15.512383821
     3.680327773        22.842176815        33.262107164
     2.050742652        18.197324375         3.164767938
     4.916277864         2.322426220        21.378205489
     0.814792561        38.717074970        15.048669613
     2.189699920        24.286767249        30.421175339
     3.541370506        16.752733941         6.005699762
     6.406905718         3.767016654        24.219137313
    -0.675835293        37.272484536        12.207737789
     1.380456067        25.472396555        30.168737327
     4.350614114        15.567104636         6.258137775
    -0.981650112         4.952645959        24.471575326
     6.712720782        36.086855231        11.955299776
     1.075527112        26.032177243        28.933502849
     4.655543069        15.007323947         7.493372253
    -0.676721157         5.512426648        25.706809804
     6.407791827        35.527074542        10.720065298
     0.302284469        27.180461255        28.899990208
     5.428786201        13.859039935         7.526884894
     0.096521487         6.660710660        25.740322445
     5.634548694        34.378790531        10.686552657
    -0.144775523        27.744755081        30.078399753
     5.875845704        13.294746109         6.348475349
     0.543581478         7.225004486        24.561912900
     5.187489192        33.814496704        11.864962202
     0.155883446        27.130804513        31.267737003
     5.575186979        13.908696677         5.159138099
     0.242922509         6.611053918        23.372575650
     5.488147916        34.428447272        13.054299452
    -0.337385191        27.485796398        32.595860228
     6.068455616        13.553704792         3.831014874
     0.736191146         6.966045803        22.044452425
     4.994879279        34.073455387        14.382422677
    -0.539454171        26.900981863        34.865620272
     6.270524352        14.138519328         1.561254830
     0.938260126         6.381231267        19.774692380
     4.792810543        34.658269923        16.652182721
    -0.230767662        28.128885444        35.440070581
     5.961837843        12.910615746         0.986804521
     0.629573617         7.609134849        19.200242072
     5.101497052        33.430366341        17.226633030
     1.816319307        28.370606143         0.331483118
     3.914750874        12.668895047        36.095391984
     1.049215906         7.850855548        17.881954433
     4.681854764        33.188645642        18.544920669
     1.116493053        27.418490722         1.041807808
     4.614577372        13.621010469        35.385067294
     1.749042160         6.898740127        17.171629743
     3.982028266        34.140761064        19.255245359
     0.847415704        26.210699344         0.439309797
     4.883654783        14.828801846        35.987565305
     2.018119570         5.690948749        17.774127754
     3.712950855        35.348552442        18.652747347
    -1.234564915        25.936144041        35.566836732
     6.965635462        15.103357149         0.860038370
     1.633370992         5.416393446        19.073475921
     4.097699433        35.623107744        17.353399181
    -0.997015808        23.413036094        31.235681244
     6.728086355        17.626465096         5.191193858
     1.395821885         2.893285499        23.404631408
     4.335248540        38.146215691        13.022243693
    -0.663045823        22.398128133        30.347230408
     6.394116370        18.641373057         6.079644694
     1.061851900         1.878377538        24.293082245
     4.669218525        39.161123652        12.133792857
    -1.144878661        22.428907974        29.048976532
     6.875948964        18.610593216         7.377898570
     1.543684494         1.909157379        25.591336121
     4.187385931        39.130343811        10.835538981
     6.239769317        23.449559484        28.624237732
    -0.508698736        17.589941706         7.802637369
     2.356836320         2.929808889        26.016074920
     3.374233861        38.109692302        10.410800182
     5.897083021        24.448873271        29.520339916
    -0.166012810        16.590627919         6.906535186
     2.699522617         3.929122676        25.119972737
     3.031548053        37.110378514        11.306902365
    -1.820948159        24.445588099        30.812764091
     7.552018492        16.593913092         5.614111011
     2.219754022         3.925837503        23.827548562
     3.511316403        37.113663687        12.599326540
    -0.366534524        22.576650233        33.353176436
     6.097604705        18.462850957         3.073698666
     0.765340480         2.056899638        21.287136217
     4.965730190        38.982601552        15.139738885
     0.393046075        22.792106675        34.581124330
     5.338024106        18.247394515         1.845750772
     0.005759880         2.272356080        20.059188323
     5.725310789        38.767145110        16.367686779
     0.398741113        21.959416939        35.683402534
     5.332329312        19.080084251         0.743472567
     0.000064842         1.439666344        18.956910118
     5.731005583        39.599834846        17.469964984
     3.574869011        22.352984529         0.378112045
     2.156201169        18.686516661        36.048763057
    -0.709333799         1.833233934        17.835325506
     6.440404468        39.206267256        18.591549596
     4.284872368        23.527124292         0.377017754
     1.446198057        17.512376898        36.049857348
     6.778462527         3.007373697        17.836419797
    -1.047392102        38.032127493        18.590455305
     1.817664276        24.299489649        35.648797774
     3.913406149        16.740011541         0.778077328
     6.778941362         3.779739054        18.991514878
    -1.047870937        37.259762136        17.435360223
     2.614534646        25.506461568        35.430234995
     3.116535779        15.533039622         0.996640107
     5.982070992         4.986710973        19.210077658
    -0.251000567        36.052790217        17.216797444
     3.281358626        27.266643831        34.226691512
     2.449711799        13.772857359         2.200183590
     5.315247012         6.746893236        20.413621141
     0.415823414        34.292607954        16.013253961
     3.571746612        27.582649059        32.904395817
     2.159323813        13.456852131         3.522479284
     5.024859026         7.062898464        21.735916835
     0.706211400        33.976602726        14.690958267
     4.268292573        28.748171053        32.605695813
     1.462777852        12.291330137         3.821179289
     4.328313065         8.228420458        22.034616839
     1.402757360        32.811080732        14.392258262
     4.682647265        29.593583189        33.629291504
     1.048423160        11.445918001         2.797583598
     3.913958373         9.073832594        21.011021149
     1.817112052        31.965668596        15.415853953
     4.396357882        29.273475776        34.951587199
     1.334712544        11.766025414         1.475287903
     4.200247756         8.753725181        19.688725454
     1.530822669        32.285776009        16.738149648
     3.695713318        28.112058413        35.250287203
     2.035357107        12.927442777         1.176587899
     4.900892320         7.592307818        19.390025450
     0.830178105        33.447193372        17.036849652
     0.433006559        34.911071659        24.657352819
     5.298063866         6.128429532        11.769522282
    -0.034200604        14.391321064        29.982959833
     5.765271029        26.648180127         6.443915269
    -0.262531838        33.876875845        25.243825123
     5.993602507         7.162625345        11.183049979
     0.661337793        13.357125250        29.396487530
     5.069732388        27.682375940         7.030387572
    -0.974782694        32.983445885        24.442798096
     6.705853058         8.056055305        11.984077006
     1.373588588        12.463695290        30.197514557
     4.357481837        28.575805900         6.229360545
    -0.980352088        33.133240460        23.084438587
     6.711422513         7.906260730        13.342436515
     1.379158043        12.613489865        31.555874066
     4.351912382        28.426011325         4.871001036
    -0.284481603        34.155124826        22.517272691
     6.015551906         6.884376364        13.909602410
     0.683287436        13.635374231        32.123039961
     5.047782989        27.404126959         4.303835140
     0.440468187        35.067023180        23.276043611
     5.290602360         5.972478010        13.150831491
    -0.041662110        14.547272585        31.364269042
     5.772732535        26.492228605         5.062606060
     1.320396808        37.028711521        25.208490836
     4.410673617         4.010789669        11.218384266
    -0.921590853        16.508960926        29.431821817
     6.652661278        24.530540264         6.995053285
     2.097418667        37.870429978        26.130454313
     3.633651758         3.169071213        10.296420789
    -1.698612712        17.350679382        28.509858340
     7.429683137        23.688821808         7.917016762
     2.323652294        39.241971187        25.973454049
     3.407417887         1.797530003        10.453421052
    -1.924846339        18.722220592        28.666858603
     7.655917008        22.317280598         7.760016498
     3.059011814        39.892447590        26.941681690
     2.672058611         1.147053600         9.485193412
     5.537593824        19.372696995        27.698630963
     0.193476601        21.666804195         8.728244139
     3.552950210        39.206267256        28.049057897
     2.178120215         1.833233934         8.377817205
     5.043655428        18.686516661        26.591254756
     0.687414998        22.352984529         9.835620346
     3.325881268        37.843343815        28.121548117
     2.405189157         3.196157375         8.305326985
     5.270724370        17.323593220        26.518764536
     0.460346056        23.715907970         9.908110566
     3.878200266        36.942117992        29.129478521
     1.852870159         4.097383198         7.297396581
     4.718405372        16.422367397        25.510834132
     1.012665054        24.617133794        10.916040970
     4.306890290        34.748965637        29.844538622
     1.424180136         6.290535553         6.582336480
     4.289715348        14.229215042        24.795774031
     1.441355077        26.810286148        11.631101071
     4.941226584        33.635155146        29.326548483
     0.789843841         7.404346045         7.100326619
     3.655379054        13.115404550        25.313764170
     2.075691372        27.924096640        11.113110932
     5.534829254        32.730644149        30.172745383
     0.196241171         8.308857041         6.254129719
     3.061776384        12.210893554        24.467567270
     2.669294041        28.828607636        11.959307832
     5.489775649        32.903831208        31.540208779
     0.241294776         8.135669982         4.886666323
     3.106829989        12.384080613        23.100103874
     2.624240436        28.655420578        13.326771228
     4.827333787        33.986861858        32.037435627
     0.903736638         7.052639332         4.389439475
     3.769271851        13.467111263        22.602877026
     1.961798574        27.572389927        13.823998076
     4.228379233        34.935696999        31.221839775
     1.502691192         6.103804191         5.205035327
     4.368226405        14.415946404        23.418472878
     1.362844021        26.623554786        13.008402224
     4.542251379        35.580016456        24.783024681
     1.188819046         5.459484735        11.643850421
     4.054354259        15.060265861        29.857287972
     1.676716166        25.979235330         6.569587130
     4.482065573        35.521739500        23.395890113
     1.249004853         5.517761690        13.030984989
     4.114540065        15.001988905        31.244422540
     1.616530360        26.037512285         5.182452562
     5.114109910        36.519409478        22.657515549
     0.616960515         4.520091712        13.769359553
     3.482495728        15.999658883        31.982797104
     2.248574698        25.039842307         4.444077998
     5.782326976        37.569201911        23.273494609
    -0.051256551         3.470299279        13.153380492
     2.814278661        17.049451316        31.366818043
     2.916791764        23.990049874         5.060057059
     5.823577725        37.617217289        24.649701472
    -0.092507300         3.422283901        11.777173630
     2.773027913        17.097466694        29.990611181
     2.958042512        23.942034496         6.436263921
     5.221210798        36.619136359        25.421951269
     0.509859628         4.420364831        11.004923832
     3.375394840        16.099385764        29.218361383
     2.355675585        24.940115426         7.208513718
     3.773010195        33.424211841        25.271508063
     1.958060230         7.615289349        11.155367039
     4.823595443        12.904461246        29.368804590
     0.907474983        28.135039944         7.058070512
     2.968518108        32.543915233        26.123169900
     2.762552317         8.495585957        10.303705201
     5.628087529        12.024164638        28.517142752
     0.102982896        29.015336552         7.909732350
     2.827651515        31.168680345        25.939578816
     2.903418910         9.870820845        10.487296286
     5.768954122        10.648929750        28.700733837
    -0.037883697        30.390571440         7.726141265
     2.104421070        30.460337939        26.850249825
     3.626649355        10.579163252         9.576625277
    -1.705615115         9.940587343        27.790062828
     7.436685540        31.098913847         8.636812274
     1.510598839        31.105890252        27.932127331
     4.220471831         9.933610938         8.494747771
    -1.111792884        10.586139657        26.708185321
     6.842863065        30.453361533         9.718689780
     1.614147789        32.486049230        28.000974259
     4.116922636         8.553451961         8.425900842
    -1.215341834        11.966298635        26.639338393
     6.946412259        29.073202556         9.787536708
     0.926338616        33.341722943        28.957544668
     4.804731564         7.697778247         7.469330434
    -0.527532661        12.821972348        25.682767985
     6.258603331        28.217528842        10.744107117
     0.332324879        35.474954533        29.691181650
     5.398745791         5.564546658         6.735693452
     0.066481076        14.955203938        24.949131003
     5.664589105        26.084297253        11.477744099
     0.049641062        35.146229352        31.020761757
     5.681429363         5.893271839         5.406113345
     0.349164893        14.626478756        23.619550896
     5.381905532        26.413022434        12.807324206
    -0.634100673        36.051559806        31.808312078
     6.365170976         4.987941384         4.618563024
     1.032906506        15.531809211        22.832000575
     4.698163920        25.507691979        13.594874527
    -1.001148413        37.310240782        31.320920815
     6.732218716         3.729260408         5.105954287
     1.399954246        16.790490187        23.319391838
     4.331116179        24.249011003        13.107483264
    -0.670585051        37.625835058        30.010644944
     6.401655232         3.413666132         6.416230158
     1.069391006        17.106084463        24.629667709
     4.661679663        23.933416728        11.797207393
    -0.015152651        36.726250597        29.193225274
     5.746222954         4.313250593         7.233649828
     0.413958484        16.206500002        25.447087379
     5.317111941        24.833001188        10.979787723
     0.716654489        23.925126743        20.523484415
     5.014415937        17.114374448        15.903390687
    -0.317848533         3.405376147        34.116828238
     6.048918959        37.634125043         2.310046864
    -0.240712743        20.001626531        20.521115624
     5.971783046        21.037873437        15.905759478
     0.639518576        40.521378349        34.119197029
     5.091551849         0.518124065         2.307678073
     0.989404424        19.727236343        22.482813402
     4.741666002        21.312264847        13.944061699
    -0.590598468        40.246986938        32.157499250
     6.321668894         0.792514252         4.269375851
     2.216715951        21.508966696        23.399676705
     3.514354474        19.530534494        13.027198397
    -1.817909996         0.989216101        31.240635948
     7.548980421        40.050285089         5.186239154
     1.998777976        23.733185091        24.411361132
     3.732292449        17.306316099        12.015513969
    -1.599972021         3.213434496        30.228951520
     7.331042446        37.826066694         6.197923581
     3.135336333        25.600687069        26.139015398
     2.595734092        15.438814121        10.287859704
     5.461269305         5.080936474        28.501297255
     0.269801120        35.958564716         7.925577847
     4.347997936        27.585973370        26.265853199
     1.383072490        13.453527820        10.161021903
     4.248607702         7.066222775        28.374459453
     1.482462723        33.973278415         8.052415648
     5.116761158        28.633916518        24.326267033
     0.614309267        12.405584672        12.100608069
     3.479844480         8.114165923        30.314045620
     2.251225946        32.925335267         6.112829482
     5.325934200        28.416941020        21.589151660
     0.405136226        12.622560170        14.837723442
     3.270671438         7.897190425        33.051160993
     2.460398987        33.142310765         3.375714109
     4.328993171        28.980946201        19.441897851
     1.402077254        12.058554989        16.984977251
     4.267612467         8.461195606        35.198414802
     1.463457959        32.578305584         1.228460300
     5.013638430        29.475882035        17.271219932
     0.717431922        11.563619155        19.155656255
     6.049696465         8.956131440         0.942217619
    -0.318625966        32.083369750        35.484656398
     6.157770543        27.918311507        16.003272905
    -0.426700118        13.121189683        20.423602197
     4.905564352         7.398560912         2.210164646
     0.825506073        33.640940278        34.216710455
     5.895559690        25.251030227        19.068922891
    -0.164489265        15.788470964        17.357952211
     2.701045947         4.731279631        35.571389762
     3.030024478        36.308221559         0.855485340
     5.439937850        21.372755564        23.083309557
     0.291132575        19.666745626        13.343565544
     3.156667788         0.853004969        31.557003095
     2.574402638        40.186496221         4.869872006
    -1.415651032        21.128857796        24.990329731
     7.146721457        19.910643394        11.436545371
     1.814456987         0.609107201        29.649982922
     3.916613438        40.430393990         6.776892180
    -0.369439687        22.972681091        25.959649490
     6.100510112        18.066820099        10.467225612
     0.768245642         2.452930496        28.680663163
     4.962824783        38.586570694         7.746211939
     6.328423536        25.345955325        23.030892183
    -0.597353110        15.693545865        13.395982919
     2.268182102         4.826204730        31.609420470
     3.462888323        36.213296460         4.817454632
     5.339782837        21.854518908        20.895803669
     0.391287588        19.184982282        15.531071433
     3.256822801         1.334768313        33.744508984
     2.474247625        39.704732877         2.682366118
     4.395340974        21.305493918        18.502558172
     1.335729452        19.734007272        17.924316930
     4.201264664         0.785743323        36.137754480
     1.529805761        40.253757867         0.289120621
     3.073532503        21.996270558        16.703907480
     2.657537922        19.043230632        19.722967622
     7.989802392         1.476519963         1.509530071
    -2.258731967        39.562981227        34.917345031
     1.954184590        24.033060440        16.813407076
     3.776886006        17.006440751        19.613469111
     0.911350623         3.513309845         1.400030475
     4.819719631        37.526191346        35.026843541
     1.313970377        26.117087825        18.250120160
     4.417100048        14.922413365        18.176754942
    -0.915164422         5.597337230        36.390192493
     6.646234847        35.442163960         0.036682609
     0.900507315        28.090676661        18.434840274
     4.830562866        12.948824530        17.992034828
    -0.501701360         7.570926066        36.205472379
     6.232772029        33.468575125         0.221402723
    -0.284574940        30.028561566        18.996797435
     6.015645365        11.010939625        17.430077667
     0.683380895         9.508810970        35.643515218
     5.047689530        31.530690220         0.783359884
    -0.702178049        30.534620020        21.242915163
     6.433248658        10.504881170        15.183959939
     1.100983943        10.014869425        33.397397490
     4.630086238        31.024631765         3.029477612
     1.250402808        27.164947804        22.365190220
     4.480667373        13.874553386        14.061684882
    -0.851596852         6.645197209        32.275122432
     6.582667522        34.394303981         4.151752669
     2.747456213        21.636721506        30.378157137
     2.983614212        19.402779685         6.048717965
     5.849149425         1.116970910        24.262155516
    -0.118078999        39.922530280        12.164719586
     3.947289614        19.806360569        31.174557314
     1.783780811        21.233139399         5.252317788
     4.649316024        40.326112387        23.465755339
     1.081754402         0.713390027        12.961119763
     4.896370366        19.812434346        33.295802187
     0.834700059        21.227068067         3.131072915
     3.700235272        40.332183718        21.344510466
     2.030835153         0.707316249        15.082364636
     3.641415082        23.631405895        33.789168622
     2.089655343        17.408095295         2.637706480
     4.955190555         3.111655300        20.851144030
     0.775879870        37.927845890        15.575731071
     2.591614709        23.789737515        29.718647468
     3.139455717        17.249763675         6.708227634
     6.004990929         3.269986920        24.921665185
    -0.273920504        37.769514270        11.505209917
     1.391062711        25.636021632        28.129633707
     4.340007470        15.403479558         8.297241395
    -0.992256756         5.116271037        26.510678946
     6.723327425        35.923230153         9.916196156
     0.079934863        27.579899592        28.067235275
     5.651135440        13.459601598         8.359639827
     0.318870970         7.060148997        26.573077378
     5.412199456        33.979352193         9.853797724
    -0.654152131        28.546831314        30.065539671
     6.385222556        12.492669877         6.361335431
     1.052958086         8.027080719        24.574772982
     4.678112339        33.012420472        11.852102120
    -0.782936078        28.307529851        32.763896757
     6.514006503        12.731971339         3.662978345
     1.181742033         7.787779256        21.876415896
     4.549328392        33.251721934        14.550459206
     0.251245824        28.787446356        34.953662876
     5.479824601        12.252054834         1.473212225
     0.147560131         8.267695761        19.686649776
     5.583510294        32.771805430        16.740225325
     2.018320575        29.202109499         0.742853772
     3.712749850        11.837391691        35.684021330
     0.847214638         8.682358904        17.470583779
     4.883855787        32.357142286        18.956291323
     0.824494348        27.593646927         1.928947233
     4.906575894        13.445854264        34.497927869
     2.041040926         7.073896331        16.284490318
     3.690029744        33.965604859        20.142384784
    -1.445089783        25.101277236        35.165121453
     7.176160148        15.938223954         1.261753649
     1.843895678         4.581526641        19.475191200
     3.887174748        36.457974549        16.951683902
    -0.104253409        21.683631226        30.629939444
     5.835323956        19.355869964         5.796935658
     0.503059486         1.163880631        24.010373209
     5.228010939        39.875620559        12.416501893
    -0.910042466        21.734601547        28.444982556
     6.641113075        19.304899643         7.981892545
     1.308848360         1.214850952        26.195330096
     4.422221821        39.824650238        10.231545005
     5.917532590        23.470532730        27.730906014
    -0.186462073        17.568968460         8.695969088
     2.679073048         2.950782135        26.909406639
     3.051997377        38.088719055         9.517468463
    -2.052466243        25.147037269        31.410129359
     7.783536775        15.892463921         5.016745742
     2.451272305         4.627286674        23.230183293
     3.279798120        36.412214516        13.196691808
    -0.832055862        21.764764960        33.189399823
     6.563126287        19.274736230         3.237475279
     1.230861817         1.245014365        21.450912830
     4.500208608        39.794486825        14.975962272
    -0.073313838        21.135261803        35.672038416
     5.804384507        19.904239387         0.754836685
     0.472119793         0.615511208        18.968274236
     5.258950388        40.423989982        17.458600865
     3.570729853        21.805928686         1.154693408
     2.160340817        19.233572504        35.272181694
    -0.705194640         1.286178091        17.058744143
     6.436264821        39.753323099        19.368130959
     4.765477573        23.805701057         1.148027790
     0.965592852        17.233800133        35.278847312
     6.297857322         3.285950462        17.065409761
    -0.566786897        37.753550729        19.361465341
     3.124450216        25.889153598        36.134621423
     2.606620209        15.150347592         0.292253679
     5.472155422         5.369403003        18.505691230
     0.258915003        35.670098187        17.921183872
     3.290297092        27.005796725        32.204234566
     2.440773333        14.033704465         4.222640536
     5.306308546         6.486046130        22.436078087
     0.424761879        34.553455060        13.990797015
     5.161079092        30.387658082        33.424826398
     0.569991334        10.651843109         3.002048704
     3.435526546         9.867907486        21.215486255
     2.295543879        31.171593704        15.211388847
     4.677997628        29.851558521        35.650764891
     1.053072797        11.187942669         0.776110210
     3.918608010         9.331807926        18.989547761
     1.812462416        31.707693264        17.437327341
     3.501052090        27.892538925        36.153454507
     2.230018335        13.146962266         0.273420595
     5.095553548         7.372788329        18.486858146
     0.635516877        33.666712861        17.940016956
    -0.256637953        33.772144152        26.187971862
     5.987708379         7.267357039        10.238903239
     0.655443909        13.252393557        28.452340790
     5.075626517        27.787107634         7.974534312
    -1.456778833        32.269440653        24.842874110
     7.187849472         8.770060537        11.584000991
     1.855584757        11.749690058        29.797438542
     3.875485424        29.289811132         6.629436559
    -1.467997570        32.526718835        22.539421214
     7.199068159         8.512782356        13.887453888
     1.866803445        12.006968239        32.100891439
     3.864266736        29.032532951         4.325983663
     0.924971853        35.773107795        22.864238715
     4.806098573         5.266393395        13.562636387
    -0.526165897        15.253357200        31.776073938
     6.257236323        25.786143990         4.650801164
     0.954950708        37.383456345        24.406662632
     4.776119717         3.656044845        12.020212470
    -0.556144753        16.863705750        30.233650021
     6.287215178        24.175795440         6.193225081
     1.980675062        39.711176023        25.222004453
     3.750395364         1.328325167        11.204870649
    -1.581869106        19.191425428        29.418308200
     7.312939532        21.848075763         7.008566902
     3.230689147        40.822525692        26.852470974
     2.500381278         0.216975498         9.574404128
     5.365916491        20.302775097        27.787841679
     0.365153935        20.736726093         8.639033423
     4.030936870        39.660164117        28.733082709
     1.700133556         1.379337073         7.693792393
     4.565668768        19.140413522        25.907229944
     1.165401657        21.899087668        10.519645158
     4.310566664        37.275317172        29.907193256
     1.420503761         3.764184018         6.519681846
     4.286038973        16.755566577        24.733119397
     1.445031452        24.283934613        11.693755705
     4.966715891        33.495866763        28.387208804
     0.764354534         7.543634427         8.039666298
     3.629889747        12.976116168        26.253103849
     2.101180678        28.063385022        10.173771253
     5.983256176        31.975188992        29.810917420
    -0.252185751         9.064312198         6.615957682
     2.613349462        11.455438397        24.829395233
     3.117720964        29.584062793        11.597479869
     5.911271472        32.282615590        32.122783759
    -0.180201047         8.756885600         4.304091343
     2.685334166        11.762864995        22.517528894
     3.045736260        29.276636195        13.909346208
     3.779698536        35.687539200        31.590806679
     1.951371889         5.351961990         4.836068423
     4.816907102        15.167788605        23.049505974
     0.914163323        25.871712585        13.377369128
     4.018935436        34.815738054        22.960369080
     1.712134989         6.223763136        13.466506022
     4.577670202        14.295987459        31.679943573
     1.153400224        26.743513731         4.746931529
     5.086553648        36.480833773        21.708705048
     0.644516777         4.558667417        14.718170053
     3.510051990        15.961083178        32.931607604
     2.221018435        25.078418012         3.495267498
     6.205272405        38.243029213        22.754084499
    -0.474201980         2.796471977        13.672790603
     2.391333233        17.723278618        31.886228154
     3.339737192        23.316222572         4.540646948
     5.273204662        36.648152530        26.370034414
     0.457865763         4.391348661        10.056840687
     3.323400976        16.128401934        28.270278238
     2.407669450        24.911099256         8.156596863
     4.212916081        33.096428426        24.495944997
     1.518154344         7.943072765        11.930930104
     4.383689557        12.576677831        30.144367655
     1.347380868        28.462823360         6.282507446
     3.227460493        30.735098717        25.193335784
     2.503609933        10.304402473        11.233539318
     5.369145145        10.215348122        29.446976869
     0.361925280        30.824153068         6.979898233
     2.004103154        29.521355869        26.748218109
     3.726967271        11.518145321         9.678656993
    -1.605297199         9.001605274        27.892094544
     7.336367624        32.037895917         8.534780558
     1.049778529        30.615467555        28.603001118
     4.681292141        10.424033635         7.823873984
    -0.650972574        10.095716960        26.037311535
     6.382042755        30.943784230        10.389563567
     0.433355158        32.969206876        29.679307297
     5.297715511         8.070294314         6.747567805
    -0.034549203        12.449456281        24.961005356
     5.765619384        28.590044909        11.465869746
     0.324592379        34.309843491        31.377928130
     5.406478290         6.729657699         5.048946972
     0.074213576        13.790092896        23.262384523
     5.656856605        27.249408295        13.164490579
    -0.860099751        35.814393828        32.700186914
     6.591170298         5.225107362         3.726688188
     1.258905828        15.294643233        21.940125739
     4.472164597        25.744857957        14.486749363
    -1.463246181        37.931250924        31.871075273
     7.194316728         3.108250266         4.555799829
     1.862052258        17.411500329        22.769237380
     3.869018167        23.628000861        13.657637722
     0.196165125        36.960011542        28.296979791
     5.534905544         4.079489649         8.129895311
     0.202640830        16.440260947        26.343332862
     5.528429351        24.599240244        10.083542240
     2.312175279        24.026575710        22.499058403
     3.418894902        17.012925481        13.927816699
    -1.913369324         3.506825114        32.141254250
     7.644439993        37.532676076         4.285620852
     3.656024877        26.069111585        22.979894780
     2.075045548        14.970389605        13.446980322
     4.940580761         5.549360990        31.660417873
     0.790489664        35.490140200         4.766457229
     4.650313131        26.740928156        20.790274131
     1.080757294        14.298573034        15.636600970
     3.946292507         6.221177561        33.850038521
     1.784777918        34.818323629         2.576836581
     5.001086990        23.611256999        21.687468434
     0.729983436        17.428244191        14.739406668
     3.595518648         3.091506404        32.952844219
     2.135551777        37.947994786         3.474030883
     3.394415507        24.137383627        19.712767273
     2.336654919        16.902117563        16.714107829
     5.202190131         3.617633032        34.927545380
     0.528880294        37.421868158         1.499329722
     1.903746345        26.257892817        20.104720787
     3.827324080        14.781608373        16.322154314
    -1.504940390         5.738142222        34.535591865
     7.236010815        35.301358968         1.891283236
     2.323220668        23.956398259        31.657504108
     3.407849757        17.083102931         4.769370994
     6.273384970         3.436647664        22.982808545
    -0.542314544        37.602853526        13.444066557
     0.914394501        26.016580624        31.300884880
     4.816675680        15.022920567         5.125990221
    -0.515588546         5.496830029        23.339427772
     6.246659216        35.542671162        13.087447329
    -0.131146513        26.611243339        33.533124229
     5.862216694        14.428257851         2.893750873
     0.529952468         6.091492744        21.107188424
     5.201118201        34.948008447        15.319686678
    -0.374167589        23.537385870        32.509528538
     6.105237770        17.502115320         3.917346564
     0.772973545         3.017635275        22.130784115
     4.958097125        38.021865915        14.296090987
     1.102149692        23.947780490        34.569104506
     4.628920978        17.091720700         1.857770595
    -0.703343736         3.428029895        20.071208146
     6.434413917        37.611471295        16.355666955
     2.607023403        26.028892071        34.270039739
     3.124047022        15.010609119         2.156835363
     5.989582235         5.509141476        20.370272914
    -0.258511810        35.530359714        16.056602188
     1.155277317        35.795472898        25.528318894
     4.575793353         5.244028293        10.898556208
    -0.756471361        15.275722302        29.111993759
     6.487541542        25.763778888         7.314881343
     2.605807315        37.200665722        27.169713120
     3.125263110         3.838835468         9.257161982
     5.990798322        16.680915127        27.470599533
    -0.259727897        24.358586063         8.956275569
     3.756996940        35.687950153        28.921845617
     1.974073485         5.351551037         7.505029484
     4.839608698        15.168199558        25.718467035
     0.891461728        25.871301632        10.708408067
     3.857860990        34.651702024        25.616472230
     1.873209435         6.387799167        10.810402872
     4.738744648        14.131951429        29.023840423
     0.992325777        26.907549762         7.403034679
     2.362507049        33.164431254        27.118715717
     3.368563376         7.875069937         9.308159385
     6.234098589        12.644680658        27.521596936
    -0.503028163        28.394820532         8.905278166
     1.003446406        34.604917057        28.799452285
     4.727624019         6.434584134         7.627422817
    -0.604640451        14.085166461        25.840860368
     6.335710876        26.954334729        10.586014734
     3.483966276        25.190867293        21.338135791
     2.247104150        15.848633897        15.088739311
     5.112639362         4.671116698        33.302176862
     0.618431063        36.368384492         3.124698240
     1.096476161        25.057077844        32.956850103
     4.634594264        15.982423346         3.470024999
    -0.697670206         4.537327249        21.683462550
     6.428740631        36.502173941        14.743412552
     2.443673746        35.174134972        27.239652167
     3.287396679         5.865366218         9.187222935
     6.152931892        14.654384377        27.400660486
    -0.421861467        26.385116813         9.026214616
    -0.674825546        22.262288815        18.665859290
     6.405896216        18.777212375        17.761015811
     1.073631502         1.742538220        35.974453362
     4.657438679        39.296962970         0.452421739
     6.987787444        25.127255295        16.369873189
    -1.256717019        15.912245895        20.057001913
     4.075547451         4.607504700         1.843564362
     1.655522974        36.431996490        34.583310740
    -0.303261536        25.871301632        25.380424689
     6.034331962        15.168199558        11.046450413
     0.702067492         5.351551037        29.259887964
     5.029002934        35.687950153         7.166987138
    -0.049943764        29.295637849        23.816256094
     5.781014433        11.743863341        12.610619008
     0.448749719         8.775887254        30.824056559
     5.282320462        32.263613936         5.602818543
     5.033087647        21.813316044        35.484148334
     0.697982778        19.226185147         0.942726768
     3.563517990         1.293565449        19.156164318
     2.167552435        39.745935742        17.270710783
     8.098369698        24.873631654         1.408989977
    -2.367299353        16.165869536        35.017885125
     2.964965197         4.353881059        16.804447574
     2.766105228        36.685620131        19.622427528
     4.848978391        25.919317011        28.952809257
     0.882091912        15.120184180         7.474065845
     3.747627247         5.399566415        25.687503396
     1.983443179        35.639934775        10.739371706
     4.586026861        29.202478867        30.806936560
     1.145043564        11.837022323         5.619938542
     4.010578777         8.682728272        23.833376092
     1.720491648        32.356772918        12.593499009
    -0.340435923        34.360322137        20.639103569
     6.071506226         6.679179054        15.787771533
     0.739241756        13.840571542        34.001209084
     4.991828669        27.198929649         2.425666018
     4.815328259        34.244181623        33.915606921
     0.915742166         6.795319567         2.511268181
     3.781277379        13.724431028        20.724705732
     1.949793046        27.315070162        15.702169370
    -1.532153301        39.051957098        25.543252483
     7.263223726         1.987544092        10.883622619
     1.930959256        18.532206503        29.097060170
     3.800111169        22.507294687         7.329814932
    -1.065095393        39.338823848        29.321083545
     6.796165697         1.700677343         7.105791557
     1.463901227        18.819073252        25.319229108
     4.267169199        22.220427938        11.107645994
