p-Br
1.0
       12.3178997040         0.0000000000         0.0000000000
        0.0000000000        38.8294982910         0.0000000000
       -0.8587896453         0.0000000000        18.2512069412
Br	C	Co	H	N	
32	320	8	232	56	
Cartesian
    4.204963   26.790024   13.581271
    7.254147   12.039475    4.669936
    6.824752    7.375274   13.795540
    4.634358   31.454224    4.455667
    0.310647   27.096390   18.008284
   11.148463   11.733109    0.242924
   10.719069    7.681640    9.368527
    4.554341   17.827398    7.815897
    0.740041   31.147858    8.882680
    6.904769   21.002098   10.435310
    7.334164   37.242149    1.309707
    4.124946    1.587350   16.941500
    0.037890   11.090094   14.841516
   11.421220   27.739405    3.409690
   -0.384896   17.297764   10.952185
    0.044499    2.116985    1.826581
   11.844006   21.531734    7.299022
   10.991825   30.504843   12.535294
    0.467285    8.324655    5.715913
   11.414611   36.712513   16.424625
   -0.283382   15.531023   14.114206
   11.742492   23.298475    4.137001
   10.071384   10.483576    7.072890
    0.146013    3.883726    4.988602
   11.313097   34.945770   13.262604
    8.999530   14.620471    1.595338
    2.459580   24.209028   16.655869
    9.641989    8.931173   16.198494
    1.817121   29.898325    2.052713
    1.387726   28.345922   11.178317
    2.888975   34.035221    7.530265
    8.570135    4.794278   10.720942
    5.347322   25.172775    9.369257
    6.111789   13.656724    8.881950
    5.682394    5.758025   18.007553
    6.172134   12.281769    8.672791
    5.286976   26.547729    9.578416
    5.776716   33.071472    0.243654
    5.742739    7.132980   17.798393
    5.716371   31.696518    0.452813
    4.922760   27.038145   10.826616
    6.536350   11.791353    7.424590
    6.106955    7.623396   16.550194
    5.352155   31.206102    1.701013
    4.600580   26.147783   11.835908
    6.858530   12.681715    6.415299
    6.429136    6.733034   15.540902
    5.029974   32.096462    2.710305
    6.876471   14.052394    6.636139
    4.582640   24.777103   11.615068
    6.447076    5.362355   15.761743
    5.012034   33.467144    2.489464
    4.967470   24.294453   10.373804
    6.491640   14.535045    7.877403
    6.062245    4.879704   17.003008
    5.396865   33.949795    1.248200
    6.693485   23.782291    8.090395
    4.765625   15.047208   10.160812
    5.195019    4.367541    1.035208
    6.264091   34.461956   17.216000
    7.137727   23.291876    6.790727
    4.321383   15.537624   11.460480
    4.750778    3.877125    2.334877
    6.708332   34.952374   15.916330
    8.120520   22.334339    6.585035
    3.338591   16.495159   11.666172
    3.767985    2.919590    2.540568
    7.691125   35.909908   15.710639
    8.458560   21.994192    5.291025
    3.000550   16.835306   12.960182
    3.429945    2.579443    3.834578
    8.029165   36.250057   14.416628
    7.822435   22.614687    4.228805
    3.636675   16.214811   14.022402
    4.066070    3.199938    4.896799
    7.393040   35.629559   13.354408
    6.825662   23.546984    4.496002
    4.633448   15.282515   13.755205
    5.062843    4.132234    4.629601
    6.396267   34.697266   13.621606
    5.471992   14.642603   14.756466
    5.987118   24.186895    3.494741
    5.901387    4.772146    5.630862
    5.557723   34.057354   12.620344
    4.107684   25.457396    2.965274
    7.351426   13.372103   15.285933
    7.780821    6.042646    6.160330
    2.742140   25.355272    3.163847
    3.678289   32.786854   12.090877
    8.716970   13.474225   15.087360
    9.146365    5.940524    5.961757
    2.312745   32.888973   12.289450
    1.864229   25.856174    2.213871
    9.594881   12.973325   16.037336
   10.024276    6.441425    6.911732
    1.434834   32.388073   11.339475
    2.373944   26.486765    1.093430
    9.085166   12.342733   17.157778
    9.514561    7.072016    8.032174
    3.730205   26.652180    0.908910
    1.944549   31.757483   10.219033
    7.728905   12.177320   17.342297
    8.158300    7.237430    8.216693
    3.300810   31.592070   10.034514
    4.605056   26.132252    1.845379
    6.854054   12.697247   16.405827
    7.283449    6.717502    7.280224
    4.175661   32.111996   10.970983
    3.767117   22.295897    6.904614
    7.691993   16.533602   11.346593
    8.121387    2.881148    2.220989
    3.352969   21.750731    8.114486
    3.337723   35.948353   16.030216
    8.106141   17.078768   10.136721
    8.535535    2.335982    1.011117
    2.923575   36.493515   17.240089
    3.590570   20.413445    8.379129
    7.868540   18.416054    9.872078
    8.297935    0.998695    0.746474
    3.161175   37.830803   17.504732
    4.237143   19.657045    7.439192
    7.221967   19.172453   10.812015
    7.651362    0.242296    1.686412
    4.660553   20.178526    6.241913
    3.807748   38.587200   16.564795
    6.798557   18.650972   12.009294
    7.227952    0.763777    2.883691
    4.231159   38.065723   15.367516
    4.422322   21.513870    5.964494
    7.036788   17.315626   12.286713
    7.466183    2.099122    3.161109
    3.992927   36.730377   15.090098
    2.453418   24.250187    6.969953
    9.005692   14.579311   11.281254
    9.435086    4.835438    2.155650
    2.024024   33.994061   16.095556
    2.389180   25.693480    6.816826
    9.069930   13.136019   11.434381
    9.499325    6.278730    2.308778
    1.959785   32.550770   15.942429
    1.298681   26.522100    7.034015
   10.160429   12.307397   11.217192
    0.869286   31.722145   16.159618
   10.589824    7.107352    2.091588
    1.456801   27.883852    6.815001
   10.002309   10.945646   11.436206
   10.431704    8.469103    2.310603
    1.027406   30.360395   15.940604
    2.669470   28.396790    6.409824
    8.789640   10.432709   11.841383
    9.219034    8.982040    2.715779
    2.240076   29.847458   15.535428
    3.723879   27.513418    6.200482
    7.735231   11.316081   12.050725
    8.164626    8.098669    2.925121
    6.387562   11.011658   12.497697
    5.071548   27.817841    5.753510
    3.294484   30.730829   15.326086
    6.816957    8.403091    3.372093
    4.642153   30.426407   14.879114
    7.185944   27.029602    5.137715
    4.273166   11.799896   13.113492
    4.702561    7.614853    3.987889
    6.756549   31.214645   14.263318
    8.292373   26.581121    5.838561
    3.166737   12.248377   12.412646
    3.596132    7.166372    3.287042
    7.862978   31.663126   14.964165
    9.553565   26.791189    5.318401
    1.905545   12.038309   12.932806
    2.334940    7.376440    3.807202
    9.124170   31.453058   14.444005
    9.683436   27.413626    4.102871
    1.775674   11.415874   14.148336
    2.205069    7.998875    5.022732
    9.254041   30.830624   13.228475
    8.592189   27.815899    3.367348
    2.866921   11.013600   14.883859
    3.296316    8.401149    5.758256
    8.162794   30.428349   12.492951
    7.324374   27.634565    3.897363
    4.134736   11.194932   14.353844
    4.564131    8.219817    5.228241
    6.894979   30.609680   13.022966
    1.368595   17.566854    5.731426
   10.090515   21.262644   12.519781
   10.519910   36.981602    3.394177
    1.734965   18.770180    5.144285
    0.939200    1.847895   14.857030
    9.724146   20.059319   13.106922
   10.153540   38.184929    3.981318
    1.305570    0.644570   14.269889
    1.189752   19.952150    5.605493
   10.269358   18.877348   12.645714
   10.698753    0.537401    3.520110
    0.760357   38.292095   14.731097
    0.278660   19.917202    6.643439
   11.180450   18.912296   11.607768
   11.609845    0.502453    2.482164
   -0.102259   18.725138    7.225653
   -0.150735   38.327045   15.769043
   11.561369   20.104361   11.025554
   11.990764   38.139885    1.899950
   -0.531654    0.689612   16.351257
    0.443867   17.541225    6.771198
   11.015243   21.288273   11.480009
   11.444638   36.955975    2.354406
    0.014472    1.873523   15.896801
    2.339900   15.451811    6.031659
    9.119210   23.377687   12.219548
    9.548605   34.866562    3.093944
    1.910505    3.962938   15.157263
    2.751811   14.189463    5.445248
    8.707299   24.640036   12.805959
    9.136694   33.604214    3.680356
    2.322416    5.225286   14.570851
    3.286788   13.096801    6.117805
    8.601717   32.511551    3.007799
    8.172322   25.732697   12.133402
    2.857393    6.317948   15.243408
    3.609465   11.968417    5.385931
    7.849645   26.861082   12.865276
    8.279040   31.383165    3.739672
    3.180070    7.446332   14.511535
    3.386867   11.930752    4.017091
    8.072243   26.898746   14.234116
    8.501638   31.345501    5.108513
    2.957472    7.483997   13.142694
    2.830493   13.052535    3.406588
    8.628617   25.776962   14.844619
    9.058012   32.467285    5.719016
    2.486271   13.191545    2.004713
    2.401098    6.362214   12.532191
    8.972840   25.637953   16.246494
    9.402234   32.606293    7.120891
    2.056876    6.223204   11.130316
    1.571341   14.526504    0.296947
    9.887769   24.302994   17.954260
   10.317164   33.941254    8.828656
    1.141946    4.888245    9.422551
    1.579587   14.134326   17.530285
    9.879524   24.695171    0.720923
    2.008981    5.280423    8.404681
    9.450129   33.549076    9.846526
    1.275578   14.439137   16.216196
   10.183532   24.390362    2.035010
    9.754137   33.853886   11.160613
    1.704973    4.975612    7.090594
    0.117800   15.131468   15.926003
   11.341310   23.698030    2.325204
   10.911915   34.546219   11.450807
    0.547195    4.283282    6.800400
   -0.761780   15.513549   16.922520
   12.220890   23.315948    1.328688
   11.791495   34.928299   10.454291
   -0.332385    3.901200    7.796916
   -0.451526   15.221163   18.234781
   11.910636   23.608335    0.016426
   11.481241   34.635914    9.142030
   -0.022131    4.193586    9.109177
   11.498796   14.150246    4.606605
   -0.039686   24.679253   13.644602
    0.389709   33.564995    4.518999
   11.069401    5.264504   13.732208
   10.761250   14.345558    5.778332
    0.697860   24.483940   12.472875
    1.127255   33.760307    3.347271
   10.331855    5.069191   14.903935
   10.343983   13.245519    6.504730
    1.115127   25.583981   11.746477
    1.544521   32.660267    2.620873
    9.914589    6.169231   15.630334
   10.643322   11.975794    6.059400
    0.815788   26.853704   12.191806
    1.245182   31.390543    3.066203
   10.213928    7.438955   15.185004
   11.364598   11.769609    4.893148
    0.094513   27.059889   13.358058
    0.523907   31.184359    4.232455
   10.935203    7.645140   14.018752
   11.806156   12.861106    4.174051
   -0.347046   25.968391   14.077156
    0.082349   32.275856    4.951552
   11.376761    6.553643   13.299654
   11.258480   16.279655    3.666668
    0.200630   22.549843   14.584539
    0.630025   35.694405    5.458936
   10.829085    3.135094   12.792271
   11.862460   17.382025    2.925121
   -0.403350   21.447474   15.326086
    0.026045   36.796772    6.200482
   11.433065    2.032725   12.050725
   11.244465   18.571760    2.577071
    0.644040   37.986511    6.548533
    0.214645   20.257738   15.674136
   10.815070    0.842989   11.702674
   11.957275   19.507938    1.852497
   -0.498165   19.321560   16.398708
   -0.068770    0.093190    7.273106
   11.527880   38.736309   10.978101
    0.948665   19.253996    1.488203
   10.510445   19.575502   16.763002
   10.939840   38.668743    7.637400
    0.519270    0.160754   10.613807
    1.523846   18.053387    1.882247
    9.935264   20.776112   16.368959
   10.364659   37.468136    7.243357
    1.094451    1.361362   11.007850
    2.915748   17.657326    1.673271
    8.543362   21.172173   16.577936
    8.972757   37.072075    7.452333
    2.486353    1.757424   10.798874
    4.636896   16.135597    2.111117
    6.822214   22.693901   16.140091
    7.251609   35.550346    7.014486
    4.207501    3.279151   11.236721
    5.173800   15.990376    0.831708
    6.714705   35.405125    8.293896
    6.285310   22.839123   17.419498
    4.744405    3.424373    9.957311
    6.468638   15.529470    0.669819
    4.990472   23.300028   17.581388
    5.419867   34.944218    8.455784
    6.039243    3.885279    9.795423
    7.217804   15.233977    1.790443
    4.241306   23.595522   16.460764
    4.670701   34.648727    7.335160
    6.788409    4.180772   10.916047
    6.703415   15.387353    3.062552
    4.755695   23.442144   15.188655
    6.274020    4.027396   12.188156
    5.185090   34.802101    6.063051
    5.406088   15.818749    3.224988
    6.053022   23.010750   15.026219
    6.482417   35.233498    5.900615
    4.976694    3.596000   12.350592
    4.325517   19.908661   16.163267
    7.133593   18.920837    2.087939
    6.704199    0.493911   11.213542
    4.754912   38.335587    7.037665
    3.379942   18.869194   16.468063
    8.079168   19.960304    1.783143
    7.649774   38.283943   10.908746
    3.809337    0.545555    7.342461
    1.426883   10.248269    9.100052
    0.997488    9.166480   18.225655
   10.461622   29.663017    0.025552
   10.032227   28.581228    9.151155
    0.996485    9.639034   10.341134
   10.462625   29.190464    7.910073
   10.033230   29.053783   17.035675
    1.425880    9.775715    1.215531
    4.580334   33.198444   15.221689
    1.696881   15.616447    3.280837
    9.762229   23.213051   14.970370
    1.267486    3.798302   12.406440
   10.191624   35.031197    5.844767
    6.449381   13.783695   12.155121
    6.878776    5.631054    3.029518
    5.009729   25.045803    6.096086
    5.969590   11.695444    9.364694
    6.398985    7.719305    0.239091
    5.489520   27.134054    8.886513
    4.895665   27.953356   10.983577
    6.563445   10.876142    7.267630
    6.134050    8.538607   16.393234
    5.325060   30.290892    1.857973
    5.060125   31.110193   18.012115
    4.746305   34.053471    3.162935
    5.399487   34.865005    1.087772
    6.059623    3.964492   17.163435
    6.489018   15.450257    8.037832
    4.970092   23.379242   10.213375
    4.316910   24.190779   12.288538
    6.712805    4.776029   15.088272
    7.142200   14.638720    5.962669
    9.110258   21.352341    5.132239
    2.778247    1.937592    3.993364
    2.348853   17.477158   13.118968
    8.680863   36.891907   14.257843
    7.628885   35.831860   12.478350
    3.830225    2.997637    5.772857
    3.400831   16.417112   14.898460
    8.058279   22.412386    3.352747
    8.544823   21.927017    7.305958
    8.115428   36.317230   16.431562
    3.343682    2.512269    1.819645
    2.914287   16.902479   10.945249
    6.616133   34.802879   18.006641
    7.045528   23.441366    8.881038
    4.413582   15.388131    9.370169
    4.842977    4.026618    0.244566
    5.523231   26.233210    1.730214
    5.935879   12.596290   16.520992
    5.093836   32.011040   10.855818
    6.365274    6.818460    7.395389
    8.969105    2.865618    0.383275
    2.490005   35.963879   17.867931
    2.919400   22.280367    8.742328
    8.539710   16.549131    9.508879
    6.358112   19.189537   12.626185
    5.100998   19.639961    5.625022
    4.671603   38.604286   14.750625
    6.787507    0.225211    3.500581
    7.714753    0.621271   18.192802
    3.744357   38.208225    0.058404
    8.144148   18.793478    9.067200
    3.314962   20.036020    9.184007
    0.946062   25.767256    2.328854
   10.513048   13.062242   15.922353
    0.516668   32.476990   11.454457
   10.942442    6.352507    6.796749
    7.836254    7.692122    8.961343
    3.622856   31.137377    9.289864
    4.052251   27.106873    0.164261
    7.406859   11.722627   18.086946
    9.045188   13.877663   14.316247
    2.413922   24.951836    3.934960
    1.984527   33.292412   13.060564
    9.474583    5.537086    5.190643
    5.272890   14.704732   15.663186
    5.702285    4.710017    6.537582
    5.756825   34.119480   11.713625
    6.186220   24.124767    2.588021
    2.756059   10.627634   15.721590
    3.185453    8.787116    6.595986
    8.273657   30.042383   11.655221
    5.315504    8.499778    5.699852
    6.143606   30.329720   12.551355
    4.886109   10.914971   14.825455
    6.573001   27.914528    3.425752
    9.114639   20.047670   13.808863
    2.344471   18.781830    4.442344
   11.595443   18.719702    7.919199
   -0.136332   20.109797   10.332008
    1.433230   20.762133    5.221670
   10.025880   18.067366   13.029537
    1.003835   37.482117   14.347274
   10.455275    1.347383    3.903933
    1.915076    0.632921   13.567947
    9.544034   38.196579    4.683260
    8.462695   32.539120    2.087938
    2.996415    6.290379   16.163269
    8.033300   25.705128   11.213542
    3.425810   13.124370    7.037665
    7.480581   27.600006   12.436372
    7.909976   30.644239    3.310769
    3.549134    8.185258   14.940438
    3.978529   11.229491    5.814835
    2.389156   15.605575    6.948234
    1.959761    3.809174   16.073837
    9.499349   35.020325    2.177369
    9.069954   23.223923   11.302973
    0.195402   16.731630    7.156298
   11.263708   22.097866   11.094909
   -0.233993    2.683118   16.281902
   11.693103   36.146381    1.969305
   11.166048    0.695048   17.044802
    0.293062   38.134453    1.206405
    6.126825   10.150030   12.724741
    6.556220    9.264719    3.599138
    5.332285   28.679468    5.526465
    8.186322   26.143902    6.652565
    4.902890   29.564779   14.652069
    9.878127   31.731466   14.913061
    8.703051   28.201864    2.529617
   10.307522   26.512781    5.787458
    1.580983    7.098032    3.338146
    1.151588   12.316717   12.463749
    7.756927   32.100346   15.778168
    3.702183    6.729153    2.473039
    3.272788   12.685596   11.598642
    0.483388   26.174965    7.318734
   10.975722   12.654534   10.932473
   11.405117    6.760215    1.806870
    0.053993   32.069283   16.444338
    0.735119   28.458139    6.942759
   10.723991   10.371358   11.308448
    2.780270   29.312387    6.280240
    8.678840    9.517111   11.970967
    2.350875   28.931860   15.405844
    9.108235    9.897638    2.845363
    0.305725   29.786106   16.068363
   11.153386    9.043391    2.182844
   10.157085    4.341138    1.837896
    1.302025   34.488361   16.413311
    9.727690   15.073611   10.963500
    1.731420   23.755888    7.287707
    7.189172    2.469556    3.969638
    4.269938   36.359943   14.281569
    6.759777   16.945192   13.095241
    4.699333   21.884304    5.155966
    3.602471   11.175130    3.518833
    3.173076    8.239619   12.644436
    8.286034   30.589878    5.606771
    7.856639   27.654367   14.732374
    9.183134   31.952793    7.745812
    2.275976    6.876704   10.505395
    2.705371   12.538045    1.379791
    8.753739   26.291452   16.871416
    9.610572   24.648966    2.719430
    1.848538   14.180533   15.531777
    2.277933    5.234216    6.406174
    9.181177   33.595284   11.845033
    2.359631   13.667983   17.732874
    9.099479   25.161514    0.518334
    8.670084   33.082733    9.643938
    2.789026    5.746766    8.607269
   10.554290   15.205632    6.066701
   10.124895    4.209117   15.192305
    1.334215   34.620380    3.058902
    0.904820   23.623865   12.184506
    9.434130    6.053519   16.416962
    1.595585   25.468267   10.959850
    2.024980   32.775978    1.834246
    9.863525   13.361230    7.291357
   12.151143   15.489087    0.664344
   -0.262638   34.903835    8.461260
   -0.692033   23.340410   17.586863
   11.721748    3.925662    9.789947
    0.691228   22.870575    1.540402
    0.261833   35.373672   10.666005
   11.197277    3.455825    7.585202
   10.767882   15.958924   16.710806
   -0.095706   18.517788   16.641451
    0.333689    0.896962    7.515847
   11.125421   37.932537   10.735360
   10.026363   18.956560   17.260166
   10.455757    0.458188    8.134563
    1.432747   19.872936    0.991041
    3.486460   18.133375    1.115149
    1.003353   38.371311   10.116644
    4.660752   16.203548    0.085781
    6.798358   22.625950   18.165426
    4.231357    3.211200    9.211384
    7.227753   35.618298    9.039823
    5.970219   15.419194   18.068695
    3.057066    1.281373   10.240752
    8.402044   37.548126    8.010455
    7.972650   20.696121   17.136059
    1.071839   22.505577   14.263318
    1.501233   35.738670    5.137715
    9.957877    3.090828   13.113492
   11.554816   20.311710    1.609757
    1.524217   38.153866    6.298492
    9.934893    0.675633   11.952715
    1.094822   20.090382   15.424095
   10.364288   18.739117    2.827112
   -0.009800   12.736076    3.402025
   11.468910   26.093422   14.849182
   -0.439195    6.678673   12.527628
   11.898305   32.150826    5.723579
   10.387271   16.323921    3.987889
    0.341240   30.321955    4.528125
   11.117870    8.507543   13.723082
   11.547265   10.907206    4.597479
   -0.088155   27.922293   13.653728
    5.488891   23.410303    0.182512
    5.059496   34.833942    9.308116
    6.399614    3.995555    8.943091
    6.414625   22.932701   14.173887
    5.044486   15.896796    4.077320
    6.800764    4.213001   12.930980
    4.658346   34.616497    5.320227
    4.228951   23.627750   14.445830
    7.230159   15.201748    3.805377
    4.629566   20.311710   16.979097
    6.829544   18.517788    1.272109
    6.400149    0.896962   10.397713
    3.904226   20.575752   15.613907
    5.058961   37.932537    7.853494
    4.333621   37.668495    6.488304
    7.125489    1.161003   11.762903
    7.554884   18.253748    2.637300
    5.074343   19.535120   15.694213
    6.384767   19.294378    2.556994
    5.503738   38.709129    6.568609
    5.955372    0.120371   11.682598
    4.615091    3.517953   13.202923
    6.844019   35.311546    5.048284
    9.208699   28.108673    9.008796
    8.779304   30.135574   18.134399
    2.679806    8.693924    0.116808
   10.703992   27.968887    9.455950
    0.755118   10.860611    8.795257
    0.325723    8.554138   17.920860
   11.133387   30.275360    0.330347
    1.560296    9.567588    8.437533
    9.898814   29.261909    9.813674
   10.328209   28.982338    0.688070
    2.250411   10.720825    9.242411
    1.130901    9.847161   17.563135
    6.924859    5.424870    5.215100
    4.534251   33.404629   13.036107
    3.573904   23.688711    6.639059
    8.314601    4.273962    2.486545
    7.885206   15.140787   11.612148
    8.317184    6.778466    2.719612
    3.141926   32.051033   15.531595
    7.887789   12.636283   11.845216
    3.571321   26.193216    6.405991
    3.144509   34.555534   15.764662
    4.971459   14.960618   12.488023
    5.400854    4.454131    3.362420
    6.058256   34.375366   14.888787
    6.495464   13.989880   14.340703
    4.963646   24.839619    3.910504
    5.372759   33.545578   17.231876
    6.487651   23.868879    5.763184
    6.086351    5.283919    1.019330
    5.656956   14.130830   10.144933
    5.802154   24.698668    8.106274
    5.880102   26.823418    5.690544
    5.579008   12.006080   12.560663
    6.008403    7.408669    3.435060
    1.901602   16.349161    5.215465
    5.450707   31.420830   14.816147
    2.528633   14.151022    4.114917
    8.930477   24.678476   14.136290
    1.472207    3.065588   14.341068
    9.986903   35.763908    3.910139
    9.557508   22.480337   13.035742
    1.432233    5.146461   10.792669
   11.999949   15.241355    3.851370
   -0.540839   23.588142   14.399837
   11.570554    4.173394   12.976973
   -0.111444   34.656105    5.274234
    9.597483   24.561211   16.584143
   10.026878   33.683037    7.458538
    1.861627   14.268288    1.667065
    2.099238    5.263727   13.240520
    9.359872   33.565769    5.010686
    0.827166   17.139339    2.578165
   10.631944   21.690159   15.673041
   11.061339   36.554089    6.547438
    3.302275   16.608541    2.306952
    0.397771    2.275409   11.703769
    2.613197   18.057270   16.689632
    8.845913   20.772228    1.561574
    2.872881    2.806208   11.432556
    8.586230   36.023289    6.818651
    8.156835   22.220957   15.944254
    8.416518   37.472019   10.687177
    3.042592    1.357479    7.564030
    0.648378    9.146677   11.299322
   10.381337   28.561426   16.077490
   10.810732   29.682821    6.951885
    1.077773   10.268073    2.173718

