"C320 H232 Co8 I32 N56"
1.0
       12.5151996613         0.0000000000         0.0000000000
        0.0000000000        39.5527992249         0.0000000000
       -0.6578660360         0.0000000000        18.4329644730
    C    H   Co    I    N
  320  232    8   32   56
Cartesian
  7.171457   22.958422   16.228936
  4.356942    3.182023   11.420512
  4.685875   16.594377    2.204030
  7.500391   36.370777    7.012453
  6.396697   23.226195   15.108764
  5.131704    3.449795   12.540683
  5.460637   16.326605    3.324201
  6.725630   36.103004    5.892282
  5.081739   23.643872   15.273186
  6.446662    3.867473   12.376261
  6.775595   15.908927    3.159779
  5.410672   35.685325    6.056703
  4.578408   23.825814   16.541743
  6.949992    4.049416   11.107704
  7.278925   15.726984    1.891222
  4.907341   35.503385    7.325260
  5.340602   23.582171   17.663387
  6.187799    3.805770    9.986059
  6.516733   15.970630    0.769576
  5.669535   35.747028    8.446906
  6.648973   23.133245   17.508183
  4.879427    3.356846   10.141264
  5.208360   16.419554    0.924782
  6.977906   36.195954    8.291700
  8.904702   21.468468   16.687916
  2.623698    1.692069   10.961531
  2.952632   18.084329    1.745049
  9.233636   37.860734    7.471434
 10.296094   21.074918   16.485891
  1.232307    1.298518   11.163556
  1.561240   18.477880    1.947074
 10.625027   38.254281    7.269408
 10.889267   19.892289   16.908004
  0.639134    0.115890   10.741441
  0.968067   19.660509    1.524959
 11.218200   39.436908    7.691523
 -0.311458   19.640339   16.546719
 11.839858   39.416737   11.102728
 12.168790   19.912462    1.886245
  0.017475    0.136062    7.330237
  0.381560   20.567455   15.784332
 11.146840    0.791056   11.865115
 11.475773   18.985344    2.648633
  0.710493   38.761746    6.567850
 -0.260592   21.736637   15.402032
 11.788992    1.960237   12.247415
 12.117925   17.816162    3.030932
  0.068341   37.592564    6.185550
  0.319209   22.825920   14.620843
 11.209193    3.049521   13.028604
 11.538125   16.726880    3.812121
  0.648142   36.503282    5.404361
  0.048678   24.933689   13.644634
 11.479722    5.157290   14.004813
 11.808655   14.619111    4.788331
  0.377611   34.395513    4.428151
  0.788505   24.720502   12.482435
 10.739896    4.944100   15.167012
 11.068828   14.832300    5.950530
  1.117438   34.608699    3.265953
  1.220628   25.805829   11.736268
 10.307773    6.029429   15.913180
 10.636706   13.746970    6.696696
  1.549561   33.523368    2.519786
  0.897689   27.081406   12.158385
 10.630712    7.305006   15.491063
 10.959645   12.471393    6.274581
  1.226622   32.247790    2.941901
  0.173242   27.307253   13.310444
 11.355158    7.530853   14.339003
 11.684092   12.245546    5.122521
  0.502175   32.021946    4.093962
 -0.268801   26.229439   14.054030
 11.797201    6.453039   13.595417
 12.126135   13.323360    4.378935
  0.060132   33.099757    4.837547
 10.180451   24.664334   18.042923
  1.347950    4.887935    9.606525
  1.676883   14.888464    0.390042
 10.509384   34.664863    8.826441
 11.349457   23.973346   18.356098
  0.178944    4.196947    9.293349
  0.507877   15.579452    0.076865
 11.678392   35.355855    9.139617
 12.330301   23.723769    1.253257
 -0.144034    3.947369    7.963225
 -0.472967   15.829031   17.179706
 12.001366   35.605430   10.469740
 11.468897   24.152125    2.245135
  0.717369    4.375726    6.971347
  0.388435   15.400673   16.187830
 11.139965   35.177074   11.461617
 10.305577   24.842323    1.947996
  1.880689    5.065922    7.268487
  1.551756   14.710477   16.484968
  9.976643   34.486876   11.164479
  9.983857   25.091900    0.617689
  2.202410    5.315501    8.598794
  1.873477   14.460899   17.815275
  9.654923   34.237296    9.834171
  9.253116   25.956126   16.323496
  2.275285    6.179729   11.325951
  2.604218   13.596671    2.109468
  9.582049   33.373070    7.107014
  8.890428   26.083885   14.913743
  2.637973    6.307485   12.735705
  2.966906   13.468915    3.519221
  9.219361   33.245311    5.697261
  8.328863   27.194131   14.307299
  3.199538    7.417732   13.342148
  3.528471   12.358668    4.125666
  8.657796   32.135067    5.090816
  8.107138   27.152601   12.945471
  3.421263    7.376201   14.703976
  3.750196   12.400198    5.487493
  8.436071   32.176598    3.728989
  8.444995   26.032861   12.210548
  3.083405    6.256462   15.438898
  3.412338   13.519938    6.222416
  8.773927   33.296338    2.994066
  8.994357   24.943576   12.878375
  2.534044    5.167178   14.771071
  2.862977   14.609222    5.554590
  9.323290   34.385625    3.661893
  9.422573   23.684216   12.276723
  2.105827    3.907817   15.372723
  2.434760   15.868583    6.156241
  9.751507   35.644983    3.060241
 10.398713   21.579217   12.558563
  1.129688    1.802817   15.090884
  1.458621   17.973583    5.874401
 10.727646   37.749981    3.342081
 10.064690   20.363363   13.150999
  1.463712    0.586964   14.498448
  1.792645   19.189436    5.281966
 10.393622   38.965835    3.934516
 10.628366   19.185085   12.681326
  0.900035   38.961486   14.968119
  1.228968   20.367713    5.751638
 10.957298    0.591314    3.464844
 11.538101   19.247182   11.632675
 -0.009701   39.023583   16.016771
  0.319233   20.305616    6.800289
 11.867034    0.529216    2.416193
 11.888956   20.454730   11.059596
 -0.360555    0.678330   16.589851
 -0.031622   19.098069    7.373370
 12.217889   38.874469    1.843112
 11.308456   21.624307   11.509727
  0.219946    1.847907   16.139719
  0.548879   17.928494    6.923237
 11.637389   37.704891    2.293245
  8.020878   16.788977   11.540142
  3.507523   36.565377   16.109305
  3.836456   22.763822    6.892823
  8.349811    2.987423    2.323659
  8.410045   17.332431   10.314350
  3.118355   37.108832   17.335096
  3.447288   22.220367    8.118615
  8.738978    2.443968    1.097867
  8.128281   18.662198   10.038594
  3.400118   38.438600   17.610853
  3.729051   20.890602    8.394372
  8.457216    1.114202    0.822110
  7.466403   19.417262   10.980517
  4.061997   39.193660   16.668930
  4.390930   20.135539    7.452448
  7.795336    0.359139    1.764035
  7.087248   18.896351   12.206310
  4.441153   38.672750   15.443138
  4.770086   20.656449    6.226655
  7.416181    0.880050    2.989827
  7.372686   17.567772   12.484277
  4.155715   37.344170   15.165167
  4.484648   21.985029    5.948686
  7.701619    2.208628    3.267796
  9.374611   14.871852   11.481526
  2.153789   34.648252   16.167923
  2.482722   24.680947    6.951439
  9.703545    4.904547    2.265042
  9.479351   13.422242   11.632675
  2.049050   33.198644   16.016771
  2.377983   26.130555    6.800289
  9.808284    6.354157    2.416193
 10.590282   12.624067   11.433968
  0.938117   32.400466   16.215479
  1.267050   26.928732    6.998997
 10.919216    7.152333    2.217486
 10.462241   11.252374   11.620141
  1.066159   31.028775   16.029306
  1.395092   28.300424    6.812824
 10.791174    8.524024    2.403659
  9.242752   10.719205   12.020137
  2.285649   30.495603   15.629310
  2.614582   28.833596    6.412828
  9.571684    9.057196    2.803654
  8.163706   11.570776   12.202070
  3.364695   31.347176   15.447377
  3.693628   27.982023    6.230895
  8.492638    8.205624    2.985587
  6.823691   11.243279   12.647780
  4.704710   31.019677   15.001668
  5.033643   28.309522    5.785186
  7.152624    8.533121    3.431296
  4.722221   11.999133   13.318738
  6.806179   31.775532   14.330710
  7.135112   27.553667    5.114226
  5.051154    7.777267    4.102256
  4.623518   11.337414   14.541397
  6.904882   31.113814   13.108050
  7.233815   28.215385    3.891567
  4.952451    8.438985    5.324915
  3.376872   11.110381   15.106183
  8.151530   30.886781   12.543265
  8.480462   28.442418    3.326781
  3.705805    8.666018    5.889701
  2.254623   11.526477   14.429693
  9.273778   31.302876   13.219754
  9.602711   28.026323    4.003271
  2.583556    8.249923    5.213211
  2.346391   12.208367   13.226021
  9.182010   31.984763   14.423426
  9.510943   27.344433    5.206944
  2.675324    7.568033    4.009538
  3.587663   12.461110   12.671558
  7.940739   32.237512   14.977890
  8.269672   27.091690    5.761407
  3.916596    7.315290    3.455075
  6.421561   13.907555    9.046899
  5.764706   33.683956    0.169583
  5.435773   25.645243    9.386064
  6.092628    5.868844   18.263382
  6.390755   12.541006    8.787915
  5.795512   32.317406    0.428566
  5.466579   27.011793    9.645048
  6.061822    7.235393   18.004398
  6.709242   12.084962    7.508668
  5.477025   31.861363    1.707814
  5.148091   27.467836   10.924296
  6.380309    7.691438   16.725151
  7.078535   12.989535    6.524164
  5.107732   32.765933    2.692319
  4.778799   26.563263   11.908801
  6.749602    6.786865   15.740646
  7.167445   14.345801    6.803239
  5.018822   34.122199    2.413244
  4.689889   25.207002   11.629727
  6.838512    5.430599   16.019720
  6.839498   14.804217    8.067003
  5.346769   34.580616    1.149480
  5.017836   24.748582   10.365962
  6.510565    4.972182   17.283485
  5.097736   15.279246   10.371491
  6.430664   35.055649   17.277956
  6.759598   24.273552    8.061473
  5.426669    4.497153    1.155010
  4.684450   15.777612   11.676916
  6.843950   35.554008   15.972532
  7.172883   23.775189    6.756050
  5.013383    3.998788    2.460432
  3.717127   16.747051   11.884469
  7.811273   36.523448   15.764977
  8.140206   22.805751    6.548495
  4.046060    3.029349    2.667987
  3.401578   17.101839   13.186574
  8.126823   36.878240   14.462871
  8.455756   22.450959    5.246390
  3.730511    2.674560    3.970092
  4.042107   16.471764   14.245548
  7.486292   36.248166   13.403900
  7.815225   23.081035    4.187417
  4.371041    3.304636    5.029066
  5.028451   15.530011   13.960943
  6.499949   35.306413   13.688503
  6.828882   24.022786    4.472022
  5.357384    4.246388    4.744461
  5.875037   14.883720   14.962222
  5.653363   34.660117   12.687225
  5.982296   24.669082    3.470743
  6.203970    4.892681    5.745739
  7.753086   13.622775   15.501754
  3.775315   33.399173   12.147691
  4.104248   25.930023    2.931210
  8.082019    6.153624    6.285272
  9.116542   13.749343   15.310973
  2.411858   33.525746   12.338473
  2.740791   25.803455    3.121991
  9.445474    6.027056    6.094491
 10.002293   13.264031   16.266906
  1.526108   33.040428   11.382540
  1.855041   26.288769    2.166058
 10.331226    6.512368    7.050425
  9.485644   12.617343   17.382654
  2.042758   32.393740   10.266793
  2.371691   26.935456    1.050310
  9.814576    7.159056    8.166172
  8.135412   12.420765   17.553528
  3.392989   32.197167   10.095919
  3.721922   27.132034    0.879437
  8.464345    7.355634    8.337045
  7.259424   12.927041   16.604599
  4.268977   32.703442   11.044848
  4.597910   26.625757    1.828366
  7.588357    6.849358    7.388117
  8.281718   20.399356    1.811960
  3.904548    0.622957    7.404522
  3.575615   19.153445   16.621004
  7.952785   38.929843   11.028442
  7.310422   19.370191    2.130851
  4.875845   39.146592    7.085632
  4.546912   20.182607   16.302114
  6.981489    0.406207   11.347333
  1.311683    9.716936   10.798030
 10.216718   29.493337   16.851415
 10.545652   29.835862    7.634934
  1.640616   10.059465    1.581548
  1.835095   10.407923    9.633067
  9.693305   30.184324   18.016381
 10.022238   29.144875    8.799897
  2.164028    9.368476    0.416585
  6.761256   23.124664   14.237603
  4.767145    3.348263   13.411843
  5.096078   16.428137    4.195361
  7.090189   36.204535    5.021121
  4.533275   23.803349   14.514282
  6.995125    4.026949   13.135164
  7.324058   15.749450    3.918682
  4.862208   35.525849    5.297800
  5.636401   23.718429    0.098027
  6.549865    3.942030    9.118456
  6.220932   15.834369   18.334938
  5.307468   35.610770    9.314508
  7.183887   22.946675   18.271177
  4.344513    3.170276    9.378269
  4.673447   16.606125    0.161786
  7.512819   36.382522    9.054696
  8.324959   20.987468   17.266563
  3.203442    1.211067   10.382884
  3.532375   18.565333    1.166401
  8.653892   38.341731    8.050081
 10.403645   19.268107   17.434229
  1.124756   39.044506   10.215217
  1.453689   20.284693    0.998735
 10.732578    0.508293    8.217747
  0.112398   18.835636   16.820486
 11.416002   38.612038   10.828962
 11.744935   20.717163    1.612479
  0.441331    0.940763    7.604003
  1.280970   20.404656   15.527505
 10.247430    0.628257   12.121940
 10.576362   19.148141    2.905459
  1.609903   38.924541    6.311023
  1.201076   22.780117   14.272035
 10.327325    3.003719   13.377410
 10.656257   16.772681    4.160928
  1.530009   36.549079    5.055554
  0.993976   23.836416   12.202696
 10.534424    4.060016   15.446751
 10.863357   15.716384    6.230268
  1.322909   35.492783    2.986214
  1.733140   25.674434   10.947559
  9.795260    5.898035   16.701887
 10.124194   13.878365    7.485406
  2.062073   33.654767    1.731077
 -0.019313   28.194698   13.590884
 11.547714    8.418299   14.058564
 11.876647   11.358100    4.842082
  0.309620   31.134501    4.374401
 11.728497   26.369694   14.838426
 -0.200096    6.593293   12.811021
  0.128837   13.183107    3.594539
 12.057430   32.959508    5.621943
 -0.590943   23.672587   17.662430
 12.119344    3.896188    9.987017
 12.448278   15.880211    0.770535
 -0.262010   35.656612    8.445948
  0.616690   23.265194    1.476204
 11.569576    3.488794    7.740278
 11.240644   16.287606   16.956761
  0.287757   36.064008   10.692686
  9.733136   25.141736    2.644670
  2.453131    5.365337    6.571813
  2.124198   14.411062   15.788295
  9.404204   34.187463   11.861152
  9.183356   25.553441    0.399332
  3.002911    5.777043    8.817151
  2.673978   13.999357   18.033632
  8.854425   33.775758    9.615814
  9.027673   26.626391   16.957684
  2.500728    6.849991   10.691764
  2.829661   12.926408    1.475282
  9.356606   32.702808    7.741200
  8.103031   27.964542   14.814942
  3.425370    8.188142   12.834505
  3.754303   11.588259    3.618022
  8.431964   31.364657    5.598460
  7.718274   27.901770   12.509366
  3.810127    8.125371   15.140081
  4.139060   11.651028    5.923599
  8.047207   31.427429    3.292883
  8.303877   26.006796   11.271389
  3.224524    6.230396   16.378058
  3.553457   13.546004    7.161575
  8.632810   33.322402    2.054907
  9.393396   23.540086   11.338135
  2.135005    3.763686   16.311312
  2.463938   16.012713    7.094829
  9.722329   35.789113    2.121653
  9.450361   20.340936   13.875653
  2.078039    0.564537   13.773795
  2.406972   19.211863    4.557311
  9.779295   38.988263    4.659171
 10.395784   18.350245   13.070225
  1.132618   38.126644   14.579220
  1.461551   21.202555    5.362739
 10.724717    1.426155    3.853743
  0.012166   20.480559   10.356929
 11.516234    0.704158   17.292516
 11.845167   19.072241    8.076035
  0.341099   38.848640    1.140447
 11.529144   22.454361   11.104442
 -0.000744    2.677962   16.545004
  0.328189   17.098438    7.328522
 11.858078   36.874835    1.887959
  8.862817   16.795582    9.674800
  2.665582   36.571982   17.974648
  2.994515   22.757216    8.758165
  9.191750    2.980818    0.458317
  8.389254   19.047044    9.209183
  3.797014   38.823445    0.007299
  3.468081   20.505754    9.223782
  8.060320    0.729354   18.425665
  6.639354   19.438937   12.843831
  4.889047   39.215335   14.805615
  5.217980   20.113866    5.589133
  6.968287    0.337464    3.627349
  7.122912   17.192692   13.320858
  4.405489   36.969094   14.328587
  4.734422   22.360107    5.112106
  7.451845    2.583708    4.104376
 10.099147   15.395216   11.159114
  1.429254   35.171616   16.490334
  1.758187   24.157585    7.273851
 10.428080    4.381185    1.942632
 11.422316   13.004130   11.176645
  0.106084   32.780529   16.472803
  0.435017   26.548670    7.256321
 11.751249    6.772270    1.960161
 11.206622   10.680600   11.472437
  0.321778   30.457001   16.177009
  0.650711   28.872198    6.960527
 11.535556    9.095800    2.255955
  9.149431    9.785205   12.167637
  2.378970   29.561604   15.481810
  2.707903   29.767595    6.265328
  9.478364    9.991196    2.951154
  6.565273   10.353816   12.858301
  4.963128   30.130214   14.791147
  5.292061   29.198985    5.574663
  6.894206    9.422583    3.641819
  5.408696   11.042548   14.987456
  6.119704   30.818948   12.661990
  6.448637   28.510251    3.445508
  5.737629    8.733851    5.770974
  3.299845   10.674193   15.946615
  8.228556   30.450593   11.702833
  8.557490   28.878606    2.486349
  3.628778    9.102207    6.730133
  1.558235   12.501453   12.783445
  9.970166   32.277856   14.866002
 10.299099   27.051345    5.649519
  1.887168    7.274946    3.566963
  3.662299   12.944959   11.857447
  7.866102   32.721359   15.792000
  8.195035   26.607839    6.575518
  3.991232    6.831441    2.640964
  6.156956   11.926396    9.473548
  5.371445   31.702795   18.175897
  5.700378   27.626403    8.959416
  6.485889    7.850004    0.257066
  6.671774   11.156262    7.311878
  5.514493   30.932663    1.904604
  5.185560   28.396536   11.121087
  6.342841    8.620137   16.528361
  7.451629   14.955191    6.132002
  4.734638   34.731590    3.084480
  4.405705   24.597609   12.300963
  7.122696    4.821209   15.348485
  6.898299   15.731414    8.266042
  5.287967   35.507812    0.950441
  4.959034   23.821385   10.166923
  6.569366    4.044986   17.482523
  4.706501   15.615840    9.573988
  6.821899   35.392243   18.075456
  7.150832   23.936958    8.858976
  5.035434    4.160559    0.357507
  3.279433   17.159825   11.149474
  8.248968   36.936223   16.499974
  8.577901   22.392976    7.283491
  3.608366    2.616576    1.932991
  2.749661   17.772773   13.353853
  8.778739   37.549174   14.295593
  9.107672   21.780025    5.079111
  3.078594    2.003626    4.137371
  3.813840   16.678467   15.144044
  7.714561   36.454865   12.505403
  8.043493   22.874334    3.288920
  4.142773    3.097933    5.927562
  5.678237   14.947042   15.889362
  5.850164   34.723443   11.760084
  6.179097   24.605756    2.543602
  6.007170    4.829357    6.672881
  9.449449   14.168089   14.525747
  2.078951   33.944489   13.123700
  2.407884   25.384710    3.907217
  9.778382    5.608310    5.309265
 10.940294   13.372327   16.159258
  0.588107   33.148723   11.490189
  0.917040   26.180473    2.273706
 11.269227    6.404073    6.942776
  7.807733   11.946488   18.308689
  3.720668   31.722889    9.340757
  4.049601   27.606310    0.124275
  8.136665    7.829912    9.092207
  6.322931   12.799326   16.706055
  5.205468   32.575725   10.943393
  5.534401   26.753474    1.726911
  6.651865    6.977075    7.489571
  7.176445   18.793670    1.349957
  5.009822   38.570067    7.866526
  4.680889   20.759129   17.083008
  6.847512    0.982729   10.566439
  6.459748   19.788779    2.378147
  5.726519    0.012380    6.838335
  5.397586   19.764019   16.054817
  6.130815   39.540420   11.594629
  7.639949   18.832156    2.881220
  4.546318   38.608554    6.335263
  4.217385   20.720642   15.551746
  7.311016    0.944244   12.097702
  2.108223    9.750635    8.959213
 10.078044   29.527035    0.257269
  9.749111   29.802164    9.473752
  1.779290   10.025764   18.175695
  2.608350   10.949520    9.893875
  8.920050   30.725920   17.755571
  9.248983   28.603279    8.539089
  2.937283    8.826880    0.677393
  1.140090   10.989270    9.258528
 10.388310   30.765670   18.390919
 10.717244   28.563529    9.174435
  1.469023    8.787129    0.042046
 10.078192   23.501086   15.048486
  1.450209    3.724687   12.600959
  1.779142   16.051712    3.384477
 10.407127   35.828113    5.832006
  6.838570   14.023445   12.343081
  4.689830   33.799842   15.306365
  5.018764   25.529354    6.089883
  7.167503    5.752954    3.126600
  2.610950   24.500587   16.771603
  8.917450    4.724187   10.877845
  9.246384   15.052214    1.661363
  2.939883   34.828612    7.555119
  1.381268   28.581644   10.812040
 10.147132    8.805245   16.837406
 10.476065   10.971155    7.620925
  1.710201   30.747555    1.595557
 11.895382   23.735634    4.255434
  0.290885    3.959235    4.961048
 -0.038048   15.817164   14.177530
 11.566448   35.593562   13.471916
 -0.069971   17.506860   10.892039
 11.598371   37.283261   16.757408
 11.927304   22.045940    7.540926
  0.258962    2.269540    1.675556
  7.019861   21.415468   10.545683
  4.508540    1.639068   17.103763
  4.837473   18.137331    7.887281
  7.348794   37.913731    1.329201
  0.370654   11.084276   15.234292
 11.157747   30.860676   12.415154
 11.486680   28.468523    3.198672
  0.699587    8.692123    6.017810
  7.404480   12.344823    4.545016
  4.781787   32.121224    4.671466
  4.452854   27.207975   13.887949
  7.075548    7.431575   13.761498
 11.470432   11.999133    0.459349
  0.715835   31.775532    8.757131
  0.386902   27.553667   17.973615
 11.141499    7.777267    9.675830
  8.511155   22.503169   16.037601
  3.017245    2.726770   11.611846
  3.346178   17.049629    2.395364
  8.840088   36.826030    6.821119
 10.972884   21.977909   15.757420
  0.555518    2.201509   11.892027
  0.884451   17.574890    2.675545
 11.301816   37.351292    6.540937
 -0.436217   23.853897   14.431721
 11.964619    4.077498   13.217726
 12.293551   15.698902    4.001244
 -0.107284   35.475299    5.215238
  9.891721   24.894928   16.664873
  1.636678    5.118528   10.984574
  1.965611   14.657872    1.768090
 10.220655   34.434268    7.448392
  9.211028   24.979571   14.206470
  2.317372    5.203171   13.442977
  2.646305   14.573228    4.226494
  9.539961   34.349628    4.989988
  9.842838   22.781622   13.090170
  1.685563    3.005222   14.559277
  2.014496   16.771178    5.342795
 10.171771   36.547577    3.873688
  8.242772   15.403838   11.810186
  3.285629   35.180238   15.839262
  3.614562   24.148961    6.622780
  8.571705    4.372562    2.593702
  8.298150   12.897377   12.011842
  3.230250   32.673780   15.637605
  3.559183   26.655419    6.421123
  8.627084    6.879023    2.795359
  6.003132   12.236450   12.740681
  5.525268   32.012848   14.908766
  5.854201   27.316350    5.692284
  6.332065    7.539950    3.524199
  6.007846   14.370719   10.329281
  5.520555   34.147118   17.320166
  5.849488   25.182080    8.103684
  6.336779    5.405681    1.112798
  5.347611   15.195791   12.697916
  6.180789   34.972190   14.951530
  6.509722   24.357008    5.735048
  5.676544    4.580610    3.481434
  6.888606   14.232282   14.546005
  4.639796   34.008687   13.103442
  4.968729   25.320515    3.886959
  7.217538    5.544116    5.329523
  9.045036   21.192785    1.569567
  3.141231    1.416386    7.646915
  2.812298   18.360014   16.863397
  8.716103   38.136414   10.786049
  0.893123    9.148958   11.690186
 10.635277   28.925358   15.959261
 10.964211   30.403841    6.742778
  1.222056   10.627441    2.473704

